rc101_3
0 73 105 9 13 51 10 8 50 6 7 11 12 84 78 19 22 21 20 52 18 14 102 80 92 64 2 15 16 17 83 65 58 93 60 75 48 45 40 44 41 42 43 49 47 46 77 76 1 66 59 98 32 35 33 31 34 36 37 38 39 55 67 1 103 87 104 57 91 79 82 63 30 28 0